/*********************************************
 * OPL 12.6.0.0 Data
 * Author: sarkara1
 * Creation Date: Mar 4, 2017 at 5:39:24 PM
 *********************************************/
//SheetConnection sheet("ds_bouma.xlsx");

n = 4;
p = 2;
r = [0,1,3,4];
d = [100,100,100,100];
w = [1,10,2,2];
